language ESSENCE' 1.0

letting jobs = 32
letting horizon = 239
letting resourcesRenew = 2
letting resourcesNonrenew = 2
letting resourceLimits = [27, 22, 196, 176]
letting successors = [[2, 3, 4], [6, 17, 24], [5, 7, 12], [20, 22, 29], [10], [19], [8, 9, 30], [21], [15, 16, 21], [11, 13, 24], [14, 17], [19, 25], [18, 23, 28], [25], [22, 23, 25], [18, 22, 24], [20, 21], [27], [30, 31], [26, 30], [27], [26], [29, 31], [28], [26, 28], [27], [31], [29], [32], [32], [32], []]
letting durations = [[0], [3, 4, 9], [5, 6, 7], [7, 8, 8], [2, 3, 10], [6, 8, 10], [1, 2, 7], [4, 5, 9], [3, 5, 9], [2, 5, 8], [1, 3, 6], [2, 4, 7], [1, 6, 9], [3, 3, 7], [4, 7, 9], [2, 7, 10], [1, 2, 9], [1, 4, 10], [2, 8, 10], [1, 2, 4], [4, 8, 9], [7, 8, 9], [5, 5, 7], [1, 5, 6], [2, 4, 9], [1, 4, 9], [1, 1, 5], [6, 7, 7], [1, 7, 8], [4, 5, 6], [1, 4, 6], [0]]
letting resourceUsage = [[[0, 0, 0, 0]], [[6, 2, 3, 8], [4, 1, 3, 7], [3, 1, 2, 5]], [[4, 8, 7, 6], [4, 8, 6, 6], [3, 6, 6, 6]], [[7, 5, 4, 5], [5, 5, 2, 4], [4, 3, 2, 5]], [[4, 6, 6, 4], [3, 5, 6, 4], [2, 3, 5, 1]], [[7, 6, 9, 4], [7, 5, 9, 3], [7, 5, 9, 2]], [[6, 1, 7, 5], [6, 1, 5, 5], [4, 1, 3, 4]], [[10, 5, 7, 5], [9, 5, 6, 5], [8, 5, 4, 4]], [[8, 4, 4, 4], [8, 4, 3, 3], [8, 3, 3, 3]], [[8, 6, 9, 2], [8, 3, 8, 1], [6, 2, 7, 1]], [[5, 7, 5, 7], [4, 6, 4, 7], [4, 6, 4, 6]], [[10, 8, 5, 6], [6, 7, 4, 5], [1, 5, 4, 2]], [[6, 7, 8, 8], [4, 6, 7, 5], [1, 5, 3, 3]], [[4, 9, 5, 4], [4, 8, 5, 5], [4, 8, 3, 3]], [[8, 3, 7, 7], [6, 2, 6, 7], [4, 2, 5, 6]], [[5, 5, 6, 9], [4, 5, 5, 4], [3, 5, 5, 3]], [[4, 8, 9, 7], [3, 8, 9, 3], [2, 6, 7, 2]], [[8, 2, 6, 9], [5, 2, 3, 8], [5, 1, 3, 8]], [[9, 8, 3, 8], [8, 6, 3, 7], [7, 5, 2, 7]], [[6, 4, 10, 1], [4, 3, 9, 1], [3, 3, 6, 1]], [[8, 8, 4, 5], [7, 4, 3, 3], [6, 2, 2, 3]], [[9, 6, 9, 7], [4, 6, 9, 6], [2, 6, 9, 4]], [[3, 6, 8, 4], [3, 5, 9, 4], [2, 3, 5, 4]], [[8, 8, 5, 9], [8, 4, 4, 8], [8, 2, 4, 6]], [[9, 6, 7, 6], [8, 6, 6, 5], [8, 5, 6, 1]], [[10, 1, 7, 4], [8, 1, 4, 4], [8, 1, 3, 4]], [[8, 5, 4, 5], [7, 6, 5, 5], [2, 4, 1, 5]], [[8, 3, 8, 6], [6, 2, 2, 3], [6, 2, 4, 2]], [[5, 7, 10, 8], [4, 5, 10, 8], [3, 5, 9, 6]], [[10, 9, 2, 9], [9, 9, 2, 9], [6, 9, 2, 7]], [[9, 8, 10, 3], [6, 8, 8, 2], [4, 8, 7, 2]], [[0, 0, 0, 0]]]
